beginners/solutions/Exercise10.out.smt2
sat
(
(define-fun p1 () Bool true)
(define-fun p2 () Bool true)
(define-fun p3 () Bool false)
(define-fun p4 () Bool true)
(define-fun p5 () Bool false)
(define-fun p6 () Bool false)
(define-fun p7 () Bool false)
(define-fun p8 () Bool true)
(define-fun p9 () Bool true)
(define-fun p10 () Bool false)
(define-fun p11 () Bool false)
(define-fun p12 () Bool false)
(define-fun p13 () Bool false)
(define-fun p14 () Bool false)
(define-fun p15 () Bool false)
(define-fun p16 () Bool true)
(define-fun p17 () Bool false)
(define-fun p18 () Bool false)
(define-fun p19 () Bool false)
(define-fun p20 () Bool false)
(define-fun x1 () String "b")
(define-fun x2 () String "a")
(define-fun x3 () String "bb")
(define-fun x4 () String "abb")
(define-fun x5 () String "aabb")
(define-fun x6 () String "abbaabb")
(define-fun i1 () String "b")
(define-fun i2 () String "b")
(define-fun i3 () String "a")
(define-fun i4 () String "bb")
(define-fun i5 () String "a")
(define-fun i6 () String "abb")
(define-fun i7 () String "abb")
(define-fun i8 () String "aabb")
)
